p cnf 22 23
-1 2 5 20 0 
-1 2 5 21 0 
-2 1 5 -3 21 0 
-4 20 0 
-4 -3 22 0 
-4 22 0 
-5 1 2 21 0 
-6 8 14 15 21 0 
-7 13 21 0 
-8 6 14 15 21 0 
-8 6 14 15 20 0 
-9 21 0 
-10 -11 -12 -4 -13 7 20 0 
-14 6 8 15 22 0 
-15 6 8 14 21 0 
-2 1 5 22 0 
-8 6 14 15 22 0 
-13 7 -4 20 0 
-4 -16 19 20 0 
-17 20 0 
-18 -19 16 21 0 
-4 -19 16 22 0 
-17 22 0 
